

(declare-sort |dff_s| 0)
(declare-fun |dff_is| (|dff_s|) Bool)
(declare-fun |dff#0| (|dff_s|) Bool) 


(define-fun |dff_n CK| ((state |dff_s|)) Bool (|dff#0| state))
(declare-fun |dff#1| (|dff_s|) Bool) 


(define-fun |dff_n D| ((state |dff_s|)) Bool (|dff#1| state))
(define-fun |dff#2| ((state |dff_s|)) (_ BitVec 1) (bvnot (ite (|dff#0| state) #b1 #b0))) 
(define-fun |dff#3| ((state |dff_s|)) (_ BitVec 1) (ite (|dff#1| state) (|dff#2| state) #b0)) 
(define-fun |dff#4| ((state |dff_s|)) (_ BitVec 1) (ite (= ((_ extract 0 0) (|dff#3| state)) #b1) #b0 (ite (|dff#0| state) #b1 #b0))) 
(define-fun |dff#5| ((state |dff_s|)) (_ BitVec 1) (bvnot (|dff#4| state))) 

(define-fun |dff_n Q| ((state |dff_s|)) Bool (= ((_ extract 0 0) (|dff#5| state)) #b1))
(define-fun |dff_a| ((state |dff_s|)) Bool true)
(define-fun |dff_u| ((state |dff_s|)) Bool true)
(define-fun |dff_i| ((state |dff_s|)) Bool true)
(define-fun |dff_h| ((state |dff_s|)) Bool true)
(define-fun |dff_t| ((state |dff_s|) (next_state |dff_s|)) Bool true) 

(declare-sort |s344_s| 0)
(declare-fun |s344_is| (|s344_s|) Bool)
(declare-fun |s344#0| (|s344_s|) Bool) 


(define-fun |s344_n A0| ((state |s344_s|)) Bool (|s344#0| state))
(declare-fun |s344#1| (|s344_s|) Bool) 


(define-fun |s344_n A1| ((state |s344_s|)) Bool (|s344#1| state))
(declare-fun |s344#2| (|s344_s|) Bool) 


(define-fun |s344_n A2| ((state |s344_s|)) Bool (|s344#2| state))
(declare-fun |s344#3| (|s344_s|) Bool) 


(define-fun |s344_n A3| ((state |s344_s|)) Bool (|s344#3| state))
(declare-fun |s344#4| (|s344_s|) Bool) 


(define-fun |s344_n B0| ((state |s344_s|)) Bool (|s344#4| state))
(declare-fun |s344#5| (|s344_s|) Bool) 


(define-fun |s344_n B1| ((state |s344_s|)) Bool (|s344#5| state))
(declare-fun |s344#6| (|s344_s|) Bool) 


(define-fun |s344_n B2| ((state |s344_s|)) Bool (|s344#6| state))
(declare-fun |s344#7| (|s344_s|) Bool) 


(define-fun |s344_n B3| ((state |s344_s|)) Bool (|s344#7| state))
(declare-fun |s344#8| (|s344_s|) Bool) 


(define-fun |s344_n CK| ((state |s344_s|)) Bool (|s344#8| state))


(declare-fun |s344#9| (|s344_s|) Bool) 
(declare-fun |s344_h DFF_0| (|s344_s|) |dff_s|)
(define-fun |s344#10| ((state |s344_s|)) (_ BitVec 1) (bvnot (ite (|s344#9| state) #b1 #b0))) 


(declare-fun |s344#11| (|s344_s|) Bool) 
(declare-fun |s344_h DFF_1| (|s344_s|) |dff_s|)


(declare-fun |s344#12| (|s344_s|) Bool) 
(declare-fun |s344_h DFF_2| (|s344_s|) |dff_s|)
(define-fun |s344#13| ((state |s344_s|)) (_ BitVec 1) (bvand (ite (|s344#11| state) #b1 #b0) (ite (|s344#12| state) #b1 #b0))) 
(define-fun |s344#14| ((state |s344_s|)) (_ BitVec 1) (bvnot (|s344#13| state))) 
(define-fun |s344#15| ((state |s344_s|)) (_ BitVec 1) (bvor (|s344#10| state) (|s344#14| state))) 
(define-fun |s344#16| ((state |s344_s|)) (_ BitVec 1) (bvnot (|s344#15| state))) 

(define-fun |s344_n CNTVCO2| ((state |s344_s|)) Bool (= ((_ extract 0 0) (|s344#16| state)) #b1))
(define-fun |s344#17| ((state |s344_s|)) (_ BitVec 1) (bvnot (ite (|s344#11| state) #b1 #b0))) 
(define-fun |s344#18| ((state |s344_s|)) (_ BitVec 1) (bvnot (ite (|s344#12| state) #b1 #b0))) 
(define-fun |s344#19| ((state |s344_s|)) (_ BitVec 1) (bvor (|s344#17| state) (|s344#18| state))) 
(define-fun |s344#20| ((state |s344_s|)) (_ BitVec 1) (bvnot (|s344#19| state))) 
(define-fun |s344#21| ((state |s344_s|)) (_ BitVec 1) (bvand (ite (|s344#9| state) #b1 #b0) (|s344#20| state))) 
(define-fun |s344#22| ((state |s344_s|)) (_ BitVec 1) (bvnot (|s344#21| state))) 

(define-fun |s344_n CNTVCON2| ((state |s344_s|)) Bool (= ((_ extract 0 0) (|s344#22| state)) #b1))
(declare-fun |s344#23| (|s344_s|) Bool) 


(define-fun |s344_n GND| ((state |s344_s|)) Bool (|s344#23| state))


(declare-fun |s344#24| (|s344_s|) Bool) 
(declare-fun |s344_h DFF_10| (|s344_s|) |dff_s|)
(define-fun |s344#25| ((state |s344_s|)) (_ BitVec 1) (bvnot (ite (|s344#24| state) #b1 #b0))) 

(define-fun |s344_n P0| ((state |s344_s|)) Bool (= ((_ extract 0 0) (|s344#25| state)) #b1))


(declare-fun |s344#26| (|s344_s|) Bool) 
(declare-fun |s344_h DFF_9| (|s344_s|) |dff_s|)
(define-fun |s344#27| ((state |s344_s|)) (_ BitVec 1) (bvnot (ite (|s344#26| state) #b1 #b0))) 

(define-fun |s344_n P1| ((state |s344_s|)) Bool (= ((_ extract 0 0) (|s344#27| state)) #b1))


(declare-fun |s344#28| (|s344_s|) Bool) 
(declare-fun |s344_h DFF_8| (|s344_s|) |dff_s|)
(define-fun |s344#29| ((state |s344_s|)) (_ BitVec 1) (bvnot (ite (|s344#28| state) #b1 #b0))) 

(define-fun |s344_n P2| ((state |s344_s|)) Bool (= ((_ extract 0 0) (|s344#29| state)) #b1))


(declare-fun |s344#30| (|s344_s|) Bool) 
(declare-fun |s344_h DFF_7| (|s344_s|) |dff_s|)
(define-fun |s344#31| ((state |s344_s|)) (_ BitVec 1) (bvnot (ite (|s344#30| state) #b1 #b0))) 

(define-fun |s344_n P3| ((state |s344_s|)) Bool (= ((_ extract 0 0) (|s344#31| state)) #b1))


(declare-fun |s344#32| (|s344_s|) Bool) 
(declare-fun |s344_h DFF_6| (|s344_s|) |dff_s|)
(define-fun |s344#33| ((state |s344_s|)) (_ BitVec 1) (bvnot (ite (|s344#32| state) #b1 #b0))) 

(define-fun |s344_n P4| ((state |s344_s|)) Bool (= ((_ extract 0 0) (|s344#33| state)) #b1))


(declare-fun |s344#34| (|s344_s|) Bool) 
(declare-fun |s344_h DFF_5| (|s344_s|) |dff_s|)
(define-fun |s344#35| ((state |s344_s|)) (_ BitVec 1) (bvnot (ite (|s344#34| state) #b1 #b0))) 

(define-fun |s344_n P5| ((state |s344_s|)) Bool (= ((_ extract 0 0) (|s344#35| state)) #b1))


(declare-fun |s344#36| (|s344_s|) Bool) 
(declare-fun |s344_h DFF_4| (|s344_s|) |dff_s|)
(define-fun |s344#37| ((state |s344_s|)) (_ BitVec 1) (bvnot (ite (|s344#36| state) #b1 #b0))) 

(define-fun |s344_n P6| ((state |s344_s|)) Bool (= ((_ extract 0 0) (|s344#37| state)) #b1))


(declare-fun |s344#38| (|s344_s|) Bool) 
(declare-fun |s344_h DFF_3| (|s344_s|) |dff_s|)
(define-fun |s344#39| ((state |s344_s|)) (_ BitVec 1) (bvnot (ite (|s344#38| state) #b1 #b0))) 

(define-fun |s344_n P7| ((state |s344_s|)) Bool (= ((_ extract 0 0) (|s344#39| state)) #b1))
(define-fun |s344#40| ((state |s344_s|)) (_ BitVec 1) (bvand (ite (|s344#12| state) #b1 #b0) (|s344#17| state))) 
(define-fun |s344#41| ((state |s344_s|)) (_ BitVec 1) (bvand (|s344#40| state) (ite (|s344#9| state) #b1 #b0))) 

(define-fun |s344_n READY| ((state |s344_s|)) Bool (= ((_ extract 0 0) (|s344#41| state)) #b1))
(declare-fun |s344#42| (|s344_s|) Bool) 


(define-fun |s344_n START| ((state |s344_s|)) Bool (|s344#42| state))
(declare-fun |s344#43| (|s344_s|) Bool) 


(define-fun |s344_n VDD| ((state |s344_s|)) Bool (|s344#43| state))


(declare-fun |s344#44| (|s344_s|) Bool) 
(declare-fun |s344_h DFF_11| (|s344_s|) |dff_s|)


(declare-fun |s344#45| (|s344_s|) Bool) 
(declare-fun |s344_h DFF_12| (|s344_s|) |dff_s|)


(declare-fun |s344#46| (|s344_s|) Bool) 
(declare-fun |s344_h DFF_13| (|s344_s|) |dff_s|)


(declare-fun |s344#47| (|s344_s|) Bool) 
(declare-fun |s344_h DFF_14| (|s344_s|) |dff_s|)
(define-fun |s344#48| ((state |s344_s|)) (_ BitVec 1) (bvnot (ite (|s344#42| state) #b1 #b0))) 
(define-fun |s344#49| ((state |s344_s|)) (_ BitVec 1) (bvor (ite (|s344#12| state) #b1 #b0) (ite (|s344#11| state) #b1 #b0))) 
(define-fun |s344#50| ((state |s344_s|)) (_ BitVec 1) (bvor (|s344#49| state) (ite (|s344#9| state) #b1 #b0))) 
(define-fun |s344#51| ((state |s344_s|)) (_ BitVec 1) (bvnot (|s344#50| state))) 
(define-fun |s344#52| ((state |s344_s|)) (_ BitVec 1) (bvor (|s344#41| state) (|s344#51| state))) 
(define-fun |s344#53| ((state |s344_s|)) (_ BitVec 1) (bvnot (|s344#52| state))) 
(define-fun |s344#54| ((state |s344_s|)) (_ BitVec 1) (bvand (|s344#25| state) (ite (|s344#47| state) #b1 #b0))) 
(define-fun |s344#55| ((state |s344_s|)) (_ BitVec 1) (bvand (|s344#54| state) (|s344#33| state))) 
(define-fun |s344#56| ((state |s344_s|)) (_ BitVec 1) (bvand (|s344#25| state) (ite (|s344#46| state) #b1 #b0))) 
(define-fun |s344#57| ((state |s344_s|)) (_ BitVec 1) (bvor (|s344#56| state) (|s344#35| state))) 
(define-fun |s344#58| ((state |s344_s|)) (_ BitVec 1) (bvand (|s344#55| state) (|s344#57| state))) 
(define-fun |s344#59| ((state |s344_s|)) (_ BitVec 1) (bvand (|s344#56| state) (|s344#35| state))) 
(define-fun |s344#60| ((state |s344_s|)) (_ BitVec 1) (bvor (|s344#58| state) (|s344#59| state))) 
(define-fun |s344#61| ((state |s344_s|)) (_ BitVec 1) (bvand (|s344#25| state) (ite (|s344#45| state) #b1 #b0))) 
(define-fun |s344#62| ((state |s344_s|)) (_ BitVec 1) (bvor (|s344#61| state) (|s344#37| state))) 
(define-fun |s344#63| ((state |s344_s|)) (_ BitVec 1) (bvand (|s344#60| state) (|s344#62| state))) 
(define-fun |s344#64| ((state |s344_s|)) (_ BitVec 1) (bvand (|s344#61| state) (|s344#37| state))) 
(define-fun |s344#65| ((state |s344_s|)) (_ BitVec 1) (bvor (|s344#63| state) (|s344#64| state))) 
(define-fun |s344#66| ((state |s344_s|)) (_ BitVec 1) (bvand (|s344#25| state) (ite (|s344#44| state) #b1 #b0))) 
(define-fun |s344#67| ((state |s344_s|)) (_ BitVec 1) (bvand (|s344#65| state) (|s344#66| state))) 
(define-fun |s344#68| ((state |s344_s|)) (_ BitVec 1) (bvand (|s344#67| state) (|s344#39| state))) 
(define-fun |s344#69| ((state |s344_s|)) (_ BitVec 1) (bvor (|s344#65| state) (|s344#66| state))) 
(define-fun |s344#70| ((state |s344_s|)) (_ BitVec 1) (bvor (|s344#69| state) (|s344#39| state))) 
(define-fun |s344#71| ((state |s344_s|)) (_ BitVec 1) (bvor (|s344#66| state) (|s344#39| state))) 
(define-fun |s344#72| ((state |s344_s|)) (_ BitVec 1) (bvand (|s344#65| state) (|s344#71| state))) 
(define-fun |s344#73| ((state |s344_s|)) (_ BitVec 1) (bvand (|s344#66| state) (|s344#39| state))) 
(define-fun |s344#74| ((state |s344_s|)) (_ BitVec 1) (bvor (|s344#72| state) (|s344#73| state))) 
(define-fun |s344#75| ((state |s344_s|)) (_ BitVec 1) (bvnot (|s344#74| state))) 
(define-fun |s344#76| ((state |s344_s|)) (_ BitVec 1) (bvand (|s344#70| state) (|s344#75| state))) 
(define-fun |s344#77| ((state |s344_s|)) (_ BitVec 1) (bvor (|s344#68| state) (|s344#76| state))) 
(define-fun |s344#78| ((state |s344_s|)) (_ BitVec 1) (bvand (|s344#53| state) (|s344#77| state))) 
(define-fun |s344#79| ((state |s344_s|)) (_ BitVec 1) (bvand (|s344#52| state) (|s344#37| state))) 
(define-fun |s344#80| ((state |s344_s|)) (_ BitVec 1) (bvor (|s344#78| state) (|s344#79| state))) 
(define-fun |s344#81| ((state |s344_s|)) (_ BitVec 1) (bvand (|s344#48| state) (|s344#80| state))) 
(define-fun |s344#82| ((state |s344_s|)) (_ BitVec 1) (bvnot (|s344#81| state))) 
(define-fun |s344#83| ((state |s344_s|)) (_ BitVec 1) (bvnot (|s344#41| state))) 
(define-fun |s344#84| ((state |s344_s|)) (_ BitVec 1) (bvand (|s344#83| state) (ite (|s344#5| state) #b1 #b0))) 
(define-fun |s344#85| ((state |s344_s|)) (_ BitVec 1) (bvand (|s344#41| state) (|s344#27| state))) 
(define-fun |s344#86| ((state |s344_s|)) (_ BitVec 1) (bvor (|s344#84| state) (|s344#85| state))) 
(define-fun |s344#87| ((state |s344_s|)) (_ BitVec 1) (bvand (|s344#52| state) (|s344#86| state))) 
(define-fun |s344#88| ((state |s344_s|)) (_ BitVec 1) (bvand (|s344#53| state) (|s344#29| state))) 
(define-fun |s344#89| ((state |s344_s|)) (_ BitVec 1) (bvor (|s344#87| state) (|s344#88| state))) 
(define-fun |s344#90| ((state |s344_s|)) (_ BitVec 1) (bvnot (|s344#89| state))) 
(define-fun |s344#91| ((state |s344_s|)) (_ BitVec 1) (bvand (|s344#60| state) (|s344#61| state))) 
(define-fun |s344#92| ((state |s344_s|)) (_ BitVec 1) (bvand (|s344#91| state) (|s344#37| state))) 
(define-fun |s344#93| ((state |s344_s|)) (_ BitVec 1) (bvor (|s344#60| state) (|s344#61| state))) 
(define-fun |s344#94| ((state |s344_s|)) (_ BitVec 1) (bvor (|s344#93| state) (|s344#37| state))) 
(define-fun |s344#95| ((state |s344_s|)) (_ BitVec 1) (bvnot (|s344#65| state))) 
(define-fun |s344#96| ((state |s344_s|)) (_ BitVec 1) (bvand (|s344#94| state) (|s344#95| state))) 
(define-fun |s344#97| ((state |s344_s|)) (_ BitVec 1) (bvor (|s344#92| state) (|s344#96| state))) 
(define-fun |s344#98| ((state |s344_s|)) (_ BitVec 1) (bvand (|s344#53| state) (|s344#97| state))) 
(define-fun |s344#99| ((state |s344_s|)) (_ BitVec 1) (bvand (|s344#52| state) (|s344#35| state))) 
(define-fun |s344#100| ((state |s344_s|)) (_ BitVec 1) (bvor (|s344#98| state) (|s344#99| state))) 
(define-fun |s344#101| ((state |s344_s|)) (_ BitVec 1) (bvand (|s344#48| state) (|s344#100| state))) 
(define-fun |s344#102| ((state |s344_s|)) (_ BitVec 1) (bvnot (|s344#101| state))) 
(define-fun |s344#103| ((state |s344_s|)) (_ BitVec 1) (bvand (|s344#55| state) (|s344#56| state))) 
(define-fun |s344#104| ((state |s344_s|)) (_ BitVec 1) (bvand (|s344#103| state) (|s344#35| state))) 
(define-fun |s344#105| ((state |s344_s|)) (_ BitVec 1) (bvor (|s344#55| state) (|s344#56| state))) 
(define-fun |s344#106| ((state |s344_s|)) (_ BitVec 1) (bvor (|s344#105| state) (|s344#35| state))) 
(define-fun |s344#107| ((state |s344_s|)) (_ BitVec 1) (bvnot (|s344#60| state))) 
(define-fun |s344#108| ((state |s344_s|)) (_ BitVec 1) (bvand (|s344#106| state) (|s344#107| state))) 
(define-fun |s344#109| ((state |s344_s|)) (_ BitVec 1) (bvor (|s344#104| state) (|s344#108| state))) 
(define-fun |s344#110| ((state |s344_s|)) (_ BitVec 1) (bvand (|s344#53| state) (|s344#109| state))) 
(define-fun |s344#111| ((state |s344_s|)) (_ BitVec 1) (bvand (|s344#52| state) (|s344#33| state))) 
(define-fun |s344#112| ((state |s344_s|)) (_ BitVec 1) (bvor (|s344#110| state) (|s344#111| state))) 
(define-fun |s344#113| ((state |s344_s|)) (_ BitVec 1) (bvand (|s344#48| state) (|s344#112| state))) 
(define-fun |s344#114| ((state |s344_s|)) (_ BitVec 1) (bvnot (|s344#113| state))) 
(define-fun |s344#115| ((state |s344_s|)) (_ BitVec 1) (bvand (|s344#83| state) (ite (|s344#7| state) #b1 #b0))) 
(define-fun |s344#116| ((state |s344_s|)) (_ BitVec 1) (bvand (|s344#41| state) (|s344#31| state))) 
(define-fun |s344#117| ((state |s344_s|)) (_ BitVec 1) (bvor (|s344#115| state) (|s344#116| state))) 
(define-fun |s344#118| ((state |s344_s|)) (_ BitVec 1) (bvand (|s344#52| state) (|s344#117| state))) 
(define-fun |s344#119| ((state |s344_s|)) (_ BitVec 1) (bvor (|s344#54| state) (|s344#33| state))) 
(define-fun |s344#120| ((state |s344_s|)) (_ BitVec 1) (bvnot (|s344#55| state))) 
(define-fun |s344#121| ((state |s344_s|)) (_ BitVec 1) (bvand (|s344#119| state) (|s344#120| state))) 
(define-fun |s344#122| ((state |s344_s|)) (_ BitVec 1) (bvand (|s344#53| state) (|s344#121| state))) 
(define-fun |s344#123| ((state |s344_s|)) (_ BitVec 1) (bvor (|s344#118| state) (|s344#122| state))) 
(define-fun |s344#124| ((state |s344_s|)) (_ BitVec 1) (bvnot (|s344#123| state))) 
(define-fun |s344#125| ((state |s344_s|)) (_ BitVec 1) (bvand (|s344#83| state) (ite (|s344#6| state) #b1 #b0))) 
(define-fun |s344#126| ((state |s344_s|)) (_ BitVec 1) (bvand (|s344#41| state) (|s344#29| state))) 
(define-fun |s344#127| ((state |s344_s|)) (_ BitVec 1) (bvor (|s344#125| state) (|s344#126| state))) 
(define-fun |s344#128| ((state |s344_s|)) (_ BitVec 1) (bvand (|s344#52| state) (|s344#127| state))) 
(define-fun |s344#129| ((state |s344_s|)) (_ BitVec 1) (bvand (|s344#53| state) (|s344#31| state))) 
(define-fun |s344#130| ((state |s344_s|)) (_ BitVec 1) (bvor (|s344#128| state) (|s344#129| state))) 
(define-fun |s344#131| ((state |s344_s|)) (_ BitVec 1) (bvnot (|s344#130| state))) 
(define-fun |s344#132| ((state |s344_s|)) (_ BitVec 1) (bvand (|s344#83| state) (ite (|s344#4| state) #b1 #b0))) 
(define-fun |s344#133| ((state |s344_s|)) (_ BitVec 1) (bvand (|s344#41| state) (|s344#25| state))) 
(define-fun |s344#134| ((state |s344_s|)) (_ BitVec 1) (bvor (|s344#132| state) (|s344#133| state))) 
(define-fun |s344#135| ((state |s344_s|)) (_ BitVec 1) (bvand (|s344#52| state) (|s344#134| state))) 
(define-fun |s344#136| ((state |s344_s|)) (_ BitVec 1) (bvand (|s344#53| state) (|s344#27| state))) 
(define-fun |s344#137| ((state |s344_s|)) (_ BitVec 1) (bvor (|s344#135| state) (|s344#136| state))) 
(define-fun |s344#138| ((state |s344_s|)) (_ BitVec 1) (bvnot (|s344#137| state))) 
(define-fun |s344#139| ((state |s344_s|)) (_ BitVec 1) (bvor (ite (|s344#9| state) #b1 #b0) (|s344#13| state))) 
(define-fun |s344#140| ((state |s344_s|)) (_ BitVec 1) (bvand (ite (|s344#9| state) #b1 #b0) (|s344#13| state))) 
(define-fun |s344#141| ((state |s344_s|)) (_ BitVec 1) (bvnot (|s344#140| state))) 
(define-fun |s344#142| ((state |s344_s|)) (_ BitVec 1) (bvand (|s344#139| state) (|s344#141| state))) 
(define-fun |s344#143| ((state |s344_s|)) (_ BitVec 1) (bvnot (|s344#142| state))) 
(define-fun |s344#144| ((state |s344_s|)) (_ BitVec 1) (bvor (|s344#143| state) (ite (|s344#42| state) #b1 #b0))) 
(define-fun |s344#145| ((state |s344_s|)) (_ BitVec 1) (bvnot (|s344#144| state))) 
(define-fun |s344#146| ((state |s344_s|)) (_ BitVec 1) (bvand (|s344#51| state) (ite (|s344#3| state) #b1 #b0))) 
(define-fun |s344#147| ((state |s344_s|)) (_ BitVec 1) (bvand (|s344#50| state) (ite (|s344#44| state) #b1 #b0))) 
(define-fun |s344#148| ((state |s344_s|)) (_ BitVec 1) (bvor (|s344#146| state) (|s344#147| state))) 
(define-fun |s344#149| ((state |s344_s|)) (_ BitVec 1) (bvand (|s344#51| state) (ite (|s344#2| state) #b1 #b0))) 
(define-fun |s344#150| ((state |s344_s|)) (_ BitVec 1) (bvand (|s344#50| state) (ite (|s344#45| state) #b1 #b0))) 
(define-fun |s344#151| ((state |s344_s|)) (_ BitVec 1) (bvor (|s344#149| state) (|s344#150| state))) 
(define-fun |s344#152| ((state |s344_s|)) (_ BitVec 1) (bvand (|s344#51| state) (ite (|s344#1| state) #b1 #b0))) 
(define-fun |s344#153| ((state |s344_s|)) (_ BitVec 1) (bvand (|s344#50| state) (ite (|s344#46| state) #b1 #b0))) 
(define-fun |s344#154| ((state |s344_s|)) (_ BitVec 1) (bvor (|s344#152| state) (|s344#153| state))) 
(define-fun |s344#155| ((state |s344_s|)) (_ BitVec 1) (bvand (|s344#51| state) (ite (|s344#0| state) #b1 #b0))) 
(define-fun |s344#156| ((state |s344_s|)) (_ BitVec 1) (bvand (|s344#50| state) (ite (|s344#47| state) #b1 #b0))) 
(define-fun |s344#157| ((state |s344_s|)) (_ BitVec 1) (bvor (|s344#155| state) (|s344#156| state))) 
(define-fun |s344#158| ((state |s344_s|)) (_ BitVec 1) (bvor (|s344#41| state) (|s344#18| state))) 
(define-fun |s344#159| ((state |s344_s|)) (_ BitVec 1) (bvnot (|s344#158| state))) 
(define-fun |s344#160| ((state |s344_s|)) (_ BitVec 1) (bvor (ite (|s344#11| state) #b1 #b0) (|s344#159| state))) 
(define-fun |s344#161| ((state |s344_s|)) (_ BitVec 1) (bvand (ite (|s344#11| state) #b1 #b0) (|s344#159| state))) 
(define-fun |s344#162| ((state |s344_s|)) (_ BitVec 1) (bvnot (|s344#161| state))) 
(define-fun |s344#163| ((state |s344_s|)) (_ BitVec 1) (bvand (|s344#160| state) (|s344#162| state))) 
(define-fun |s344#164| ((state |s344_s|)) (_ BitVec 1) (bvnot (|s344#163| state))) 
(define-fun |s344#165| ((state |s344_s|)) (_ BitVec 1) (bvor (|s344#164| state) (ite (|s344#42| state) #b1 #b0))) 
(define-fun |s344#166| ((state |s344_s|)) (_ BitVec 1) (bvnot (|s344#165| state))) 
(define-fun |s344#167| ((state |s344_s|)) (_ BitVec 1) (bvand (ite (|s344#12| state) #b1 #b0) (|s344#83| state))) 
(define-fun |s344#168| ((state |s344_s|)) (_ BitVec 1) (bvor (|s344#167| state) (ite (|s344#42| state) #b1 #b0))) 
(define-fun |s344#169| ((state |s344_s|)) (_ BitVec 1) (bvnot (|s344#168| state))) 
(define-fun |s344#170| ((state |s344_s|)) (_ BitVec 1) (bvand (|s344#53| state) (|s344#74| state))) 
(define-fun |s344#171| ((state |s344_s|)) (_ BitVec 1) (bvand (|s344#52| state) (|s344#39| state))) 
(define-fun |s344#172| ((state |s344_s|)) (_ BitVec 1) (bvor (|s344#170| state) (|s344#171| state))) 
(define-fun |s344#173| ((state |s344_s|)) (_ BitVec 1) (bvand (|s344#48| state) (|s344#172| state))) 
(define-fun |s344#174| ((state |s344_s|)) (_ BitVec 1) (bvnot (|s344#173| state))) 
(define-fun |s344_a| ((state |s344_s|)) Bool (and
  (|dff_a| (|s344_h DFF_4| state))
  (|dff_a| (|s344_h DFF_9| state))
  (|dff_a| (|s344_h DFF_5| state))
  (|dff_a| (|s344_h DFF_6| state))
  (|dff_a| (|s344_h DFF_7| state))
  (|dff_a| (|s344_h DFF_8| state))
  (|dff_a| (|s344_h DFF_10| state))
  (|dff_a| (|s344_h DFF_0| state))
  (|dff_a| (|s344_h DFF_11| state))
  (|dff_a| (|s344_h DFF_12| state))
  (|dff_a| (|s344_h DFF_13| state))
  (|dff_a| (|s344_h DFF_14| state))
  (|dff_a| (|s344_h DFF_1| state))
  (|dff_a| (|s344_h DFF_2| state))
  (|dff_a| (|s344_h DFF_3| state))
))
(define-fun |s344_u| ((state |s344_s|)) Bool (and
  (|dff_u| (|s344_h DFF_4| state))
  (|dff_u| (|s344_h DFF_9| state))
  (|dff_u| (|s344_h DFF_5| state))
  (|dff_u| (|s344_h DFF_6| state))
  (|dff_u| (|s344_h DFF_7| state))
  (|dff_u| (|s344_h DFF_8| state))
  (|dff_u| (|s344_h DFF_10| state))
  (|dff_u| (|s344_h DFF_0| state))
  (|dff_u| (|s344_h DFF_11| state))
  (|dff_u| (|s344_h DFF_12| state))
  (|dff_u| (|s344_h DFF_13| state))
  (|dff_u| (|s344_h DFF_14| state))
  (|dff_u| (|s344_h DFF_1| state))
  (|dff_u| (|s344_h DFF_2| state))
  (|dff_u| (|s344_h DFF_3| state))
))
(define-fun |s344_i| ((state |s344_s|)) Bool (and
  (|dff_i| (|s344_h DFF_4| state))
  (|dff_i| (|s344_h DFF_9| state))
  (|dff_i| (|s344_h DFF_5| state))
  (|dff_i| (|s344_h DFF_6| state))
  (|dff_i| (|s344_h DFF_7| state))
  (|dff_i| (|s344_h DFF_8| state))
  (|dff_i| (|s344_h DFF_10| state))
  (|dff_i| (|s344_h DFF_0| state))
  (|dff_i| (|s344_h DFF_11| state))
  (|dff_i| (|s344_h DFF_12| state))
  (|dff_i| (|s344_h DFF_13| state))
  (|dff_i| (|s344_h DFF_14| state))
  (|dff_i| (|s344_h DFF_1| state))
  (|dff_i| (|s344_h DFF_2| state))
  (|dff_i| (|s344_h DFF_3| state))
))
(define-fun |s344_h| ((state |s344_s|)) Bool (and
  (= (|s344_is| state) (|dff_is| (|s344_h DFF_4| state)))
  (= (|s344#8| state) (|dff_n CK| (|s344_h DFF_4| state))) 
  (= (= ((_ extract 0 0) (|s344#82| state)) #b1) (|dff_n D| (|s344_h DFF_4| state))) 
  (= (|s344#36| state) (|dff_n Q| (|s344_h DFF_4| state))) 
  (= (|s344_is| state) (|dff_is| (|s344_h DFF_9| state)))
  (= (|s344#8| state) (|dff_n CK| (|s344_h DFF_9| state))) 
  (= (= ((_ extract 0 0) (|s344#90| state)) #b1) (|dff_n D| (|s344_h DFF_9| state))) 
  (= (|s344#26| state) (|dff_n Q| (|s344_h DFF_9| state))) 
  (= (|s344_is| state) (|dff_is| (|s344_h DFF_5| state)))
  (= (|s344#8| state) (|dff_n CK| (|s344_h DFF_5| state))) 
  (= (= ((_ extract 0 0) (|s344#102| state)) #b1) (|dff_n D| (|s344_h DFF_5| state))) 
  (= (|s344#34| state) (|dff_n Q| (|s344_h DFF_5| state))) 
  (= (|s344_is| state) (|dff_is| (|s344_h DFF_6| state)))
  (= (|s344#8| state) (|dff_n CK| (|s344_h DFF_6| state))) 
  (= (= ((_ extract 0 0) (|s344#114| state)) #b1) (|dff_n D| (|s344_h DFF_6| state))) 
  (= (|s344#32| state) (|dff_n Q| (|s344_h DFF_6| state))) 
  (= (|s344_is| state) (|dff_is| (|s344_h DFF_7| state)))
  (= (|s344#8| state) (|dff_n CK| (|s344_h DFF_7| state))) 
  (= (= ((_ extract 0 0) (|s344#124| state)) #b1) (|dff_n D| (|s344_h DFF_7| state))) 
  (= (|s344#30| state) (|dff_n Q| (|s344_h DFF_7| state))) 
  (= (|s344_is| state) (|dff_is| (|s344_h DFF_8| state)))
  (= (|s344#8| state) (|dff_n CK| (|s344_h DFF_8| state))) 
  (= (= ((_ extract 0 0) (|s344#131| state)) #b1) (|dff_n D| (|s344_h DFF_8| state))) 
  (= (|s344#28| state) (|dff_n Q| (|s344_h DFF_8| state))) 
  (= (|s344_is| state) (|dff_is| (|s344_h DFF_10| state)))
  (= (|s344#8| state) (|dff_n CK| (|s344_h DFF_10| state))) 
  (= (= ((_ extract 0 0) (|s344#138| state)) #b1) (|dff_n D| (|s344_h DFF_10| state))) 
  (= (|s344#24| state) (|dff_n Q| (|s344_h DFF_10| state))) 
  (= (|s344_is| state) (|dff_is| (|s344_h DFF_0| state)))
  (= (|s344#8| state) (|dff_n CK| (|s344_h DFF_0| state))) 
  (= (= ((_ extract 0 0) (|s344#145| state)) #b1) (|dff_n D| (|s344_h DFF_0| state))) 
  (= (|s344#9| state) (|dff_n Q| (|s344_h DFF_0| state))) 
  (= (|s344_is| state) (|dff_is| (|s344_h DFF_11| state)))
  (= (|s344#8| state) (|dff_n CK| (|s344_h DFF_11| state))) 
  (= (= ((_ extract 0 0) (|s344#148| state)) #b1) (|dff_n D| (|s344_h DFF_11| state))) 
  (= (|s344#44| state) (|dff_n Q| (|s344_h DFF_11| state))) 
  (= (|s344_is| state) (|dff_is| (|s344_h DFF_12| state)))
  (= (|s344#8| state) (|dff_n CK| (|s344_h DFF_12| state))) 
  (= (= ((_ extract 0 0) (|s344#151| state)) #b1) (|dff_n D| (|s344_h DFF_12| state))) 
  (= (|s344#45| state) (|dff_n Q| (|s344_h DFF_12| state))) 
  (= (|s344_is| state) (|dff_is| (|s344_h DFF_13| state)))
  (= (|s344#8| state) (|dff_n CK| (|s344_h DFF_13| state))) 
  (= (= ((_ extract 0 0) (|s344#154| state)) #b1) (|dff_n D| (|s344_h DFF_13| state))) 
  (= (|s344#46| state) (|dff_n Q| (|s344_h DFF_13| state))) 
  (= (|s344_is| state) (|dff_is| (|s344_h DFF_14| state)))
  (= (|s344#8| state) (|dff_n CK| (|s344_h DFF_14| state))) 
  (= (= ((_ extract 0 0) (|s344#157| state)) #b1) (|dff_n D| (|s344_h DFF_14| state))) 
  (= (|s344#47| state) (|dff_n Q| (|s344_h DFF_14| state))) 
  (= (|s344_is| state) (|dff_is| (|s344_h DFF_1| state)))
  (= (|s344#8| state) (|dff_n CK| (|s344_h DFF_1| state))) 
  (= (= ((_ extract 0 0) (|s344#166| state)) #b1) (|dff_n D| (|s344_h DFF_1| state))) 
  (= (|s344#11| state) (|dff_n Q| (|s344_h DFF_1| state))) 
  (= (|s344_is| state) (|dff_is| (|s344_h DFF_2| state)))
  (= (|s344#8| state) (|dff_n CK| (|s344_h DFF_2| state))) 
  (= (= ((_ extract 0 0) (|s344#169| state)) #b1) (|dff_n D| (|s344_h DFF_2| state))) 
  (= (|s344#12| state) (|dff_n Q| (|s344_h DFF_2| state))) 
  (= (|s344_is| state) (|dff_is| (|s344_h DFF_3| state)))
  (= (|s344#8| state) (|dff_n CK| (|s344_h DFF_3| state))) 
  (= (= ((_ extract 0 0) (|s344#174| state)) #b1) (|dff_n D| (|s344_h DFF_3| state))) 
  (= (|s344#38| state) (|dff_n Q| (|s344_h DFF_3| state))) 
  (|dff_h| (|s344_h DFF_4| state))
  (|dff_h| (|s344_h DFF_9| state))
  (|dff_h| (|s344_h DFF_5| state))
  (|dff_h| (|s344_h DFF_6| state))
  (|dff_h| (|s344_h DFF_7| state))
  (|dff_h| (|s344_h DFF_8| state))
  (|dff_h| (|s344_h DFF_10| state))
  (|dff_h| (|s344_h DFF_0| state))
  (|dff_h| (|s344_h DFF_11| state))
  (|dff_h| (|s344_h DFF_12| state))
  (|dff_h| (|s344_h DFF_13| state))
  (|dff_h| (|s344_h DFF_14| state))
  (|dff_h| (|s344_h DFF_1| state))
  (|dff_h| (|s344_h DFF_2| state))
  (|dff_h| (|s344_h DFF_3| state))
))
(define-fun |s344_t| ((state |s344_s|) (next_state |s344_s|)) Bool (and
  (|dff_t| (|s344_h DFF_4| state) (|s344_h DFF_4| next_state))
  (|dff_t| (|s344_h DFF_9| state) (|s344_h DFF_9| next_state))
  (|dff_t| (|s344_h DFF_5| state) (|s344_h DFF_5| next_state))
  (|dff_t| (|s344_h DFF_6| state) (|s344_h DFF_6| next_state))
  (|dff_t| (|s344_h DFF_7| state) (|s344_h DFF_7| next_state))
  (|dff_t| (|s344_h DFF_8| state) (|s344_h DFF_8| next_state))
  (|dff_t| (|s344_h DFF_10| state) (|s344_h DFF_10| next_state))
  (|dff_t| (|s344_h DFF_0| state) (|s344_h DFF_0| next_state))
  (|dff_t| (|s344_h DFF_11| state) (|s344_h DFF_11| next_state))
  (|dff_t| (|s344_h DFF_12| state) (|s344_h DFF_12| next_state))
  (|dff_t| (|s344_h DFF_13| state) (|s344_h DFF_13| next_state))
  (|dff_t| (|s344_h DFF_14| state) (|s344_h DFF_14| next_state))
  (|dff_t| (|s344_h DFF_1| state) (|s344_h DFF_1| next_state))
  (|dff_t| (|s344_h DFF_2| state) (|s344_h DFF_2| next_state))
  (|dff_t| (|s344_h DFF_3| state) (|s344_h DFF_3| next_state))
)) 

